c File: instances/16_0.30_2.col
c
c Description: Random graph of size 16 vertices and P(0.3) of edges between any two vertices.
p col 16 120
e 1 5
e 1 6
e 1 8
e 1 10
e 1 13
e 2 7
e 2 8
e 3 8
e 3 13
e 3 16
e 4 5
e 4 6
e 4 7
e 5 9
e 5 13
e 5 14
e 5 15
e 6 10
e 7 8
e 7 9
e 7 13
e 8 9
e 8 10
e 8 11
e 8 12
e 8 13
e 8 16
e 9 12
e 10 11
e 10 13
e 11 12
e 11 13
e 11 16
e 12 15